x = 24;
y = 20;
c = 86;
n = 58;

p = [83  13  46  18  26  90  73  91  77  47  51  54  88  31  27  48  95  23  46  91  92  62  54  37  66  17  11  29  16  24  77  46  34  21  25  51  44  23  78  24  14  68  79  69  77  77  44  14  76  18  76  58  28  92  37  65  38  62];
w = [2  1  1  8  9  7  4  6  6  2  8  6  2  3  2  2  10  1  8  7  4  8  9  9  6  2  4  6  3  9  5  10  8  4  4  10  5  2  5  10  1  7  8  9  9  8  4  9  4  6  1  7  9  4  3  3  7  3];
s = [7  8  18  15  7  12  11  10  15  10  11  6  1  11  17  13  3  16  6  10  5  17  2  9  8  2  4  4  8  4  20  8  2  13  9  12  10  1  3  4  19  4  11  16  11  4  1  12  11  13  8  15  9  12  7  11  11  5];
